DATASET = "thpack3";
INSTANCE = "066";

WIDTH = 233;
HEIGHT = 220;
LENGTH = 587;

NO_OF_SHAPES = 8;
size = [|
  87,45,32 |
  84,63,46 |
  84,67,44 |
  76,55,30 |
  87,78,61 |
  115,77,53 |
  78,72,51 |
  93,91,62 |
|];

verticality = [|
  0,1,1 |
  1,1,1 |
  1,1,1 |
  0,1,1 |
  1,1,1 |
  0,1,1 |
  1,1,1 |
  1,1,1 |
|];

box_count = [
  15,
  14,
  11,
  9,
  15,
  11,
  9,
  13,
];
